(set-logic QF_S)
(declare-fun var0 () String)
(declare-fun var1 () String)
(declare-fun var2 () String)
(declare-fun var3 () String)
(declare-fun var4 () String)
(declare-fun var5 () String)
(declare-fun var6 () String)
(declare-fun var7 () String)
(declare-fun var8 () String)
(declare-fun var9 () String)
(declare-fun var10 () String)
(declare-fun var11 () String)
(declare-fun var12 () String)
(declare-fun var13 () String)
(declare-fun var14 () String)
(declare-fun var15 () String)
(declare-fun var16 () String)
(declare-fun var17 () String)
(declare-fun var18 () String)
(declare-fun var19 () String)
(declare-fun var20 () String)
(declare-fun var21 () String)
(declare-fun var22 () String)
(declare-fun var23 () String)
(declare-fun var24 () String)
(declare-fun var25 () String)
(declare-fun var26 () String)
(declare-fun var27 () String)
(declare-fun var28 () String)
(declare-fun var29 () String)
(declare-fun var30 () String)
(declare-fun var31 () String)
(declare-fun var32 () String)
(declare-fun var33 () String)
(declare-fun var34 () String)
(declare-fun var35 () String)
(declare-fun var36 () String)
(declare-fun var37 () String)
(declare-fun var38 () String)
(declare-fun var39 () String)
(declare-fun var40 () String)
(declare-fun var41 () String)
(declare-fun var42 () String)
(declare-fun var43 () String)
(declare-fun var44 () String)
(declare-fun var45 () String)
(declare-fun var46 () String)
(declare-fun var47 () String)
(declare-fun var48 () String)
(declare-fun var49 () String)
(declare-fun var50 () String)
(declare-fun var51 () String)
(declare-fun var52 () String)
(declare-fun var53 () String)
(declare-fun var54 () String)
(declare-fun var55 () String)
(declare-fun var56 () String)
(declare-fun var57 () String)
(declare-fun var58 () String)
(declare-fun var59 () String)
(declare-fun var60 () String)
(assert (= var0 (Concat var1 var2)))
(assert (= var2 (Concat var3 var4)))
(assert (= var4 (Concat var5 var6)))
(assert (= var6 (Concat var7 var8)))
(assert (= var8 (Concat var9 var10)))
(assert (= var10 (Concat var11 var12)))
(assert (= var12 (Concat var13 var14)))
(assert (= var14 (Concat var15 var16)))
(assert (= var16 (Concat var17 var18)))
(assert (= var18 (Concat var19 var20)))
(assert (= var20 (Concat var21 var22)))
(assert (= var22 (Concat var23 var24)))
(assert (= var24 (Concat var25 var26)))
(assert (= var26 (Concat var27 var28)))
(assert (= var28 (Concat var29 var30)))
(assert (= var30 (Concat var31 var32)))
(assert (= var32 (Concat var33 var34)))
(assert (= var34 (Concat var35 var36)))
(assert (= var36 (Concat var37 var38)))
(assert (= var38 (Concat var39 var40)))
(assert (= var40 (Concat var41 var42)))
(assert (= var42 (Concat var43 var44)))
(assert (= var44 (Concat var45 var46)))
(assert (= var46 (Concat var47 var48)))
(assert (= var48 (Concat var49 var50)))
(assert (= var50 (Concat var51 var52)))
(assert (= var52 (Concat var53 var54)))
(assert (= var54 (Concat var55 var56)))
(assert (= var56 (Concat var57 var58)))
(assert (= var58 (Concat var59 var60)))
(assert (= var0 "solution"))
(assert (= "I" (CharAt var5 354)))
(assert (= "w" (CharAt var60 86)))
(assert (= "P" (CharAt var2 141)))
(assert (= "[" (CharAt var11 972)))
(assert (= "+" (CharAt var29 988)))
(assert (= "`" (CharAt var20 384)))
(assert (= "`" (CharAt var1 540)))
(assert (= "7" (CharAt var19 703)))
(assert (= "K" (CharAt var7 228)))
(assert (= "m" (CharAt var26 279)))
(assert (= "8" (CharAt var18 893)))
(assert (= "I" (CharAt var18 731)))
(assert (= "N" (CharAt var51 824)))
(assert (= "O" (CharAt var3 343)))
(assert (= "_" (CharAt var18 982)))
(assert (= "`" (CharAt var15 940)))
(assert (= "'" (CharAt var19 959)))
(assert (= "H" (CharAt var22 482)))
(assert (= "~" (CharAt var59 492)))
(assert (= "R" (CharAt var12 54)))
(assert (= "]" (CharAt var35 194)))
(assert (= "H" (CharAt var15 240)))
(assert (= "_" (CharAt var48 182)))
(assert (= "h" (CharAt var17 33)))
(assert (= "{" (CharAt var54 241)))
(assert (= "~" (CharAt var48 526)))
(assert (= "<" (CharAt var9 862)))
(assert (= "N" (CharAt var33 417)))
(assert (= "q" (CharAt var34 101)))
(assert (= "X" (CharAt var54 301)))
(assert (= "K" (CharAt var7 291)))
(assert (= "[" (CharAt var46 185)))
(assert (= "n" (CharAt var8 186)))
(assert (= "r" (CharAt var53 297)))
(assert (= "k" (CharAt var43 191)))
(assert (= "," (CharAt var7 747)))
(assert (= ";" (CharAt var15 577)))
(assert (= "\\" (CharAt var48 674)))
(assert (= "{" (CharAt var34 465)))
(assert (= "p" (CharAt var11 90)))
(assert (= "(" (CharAt var16 199)))
(assert (= "B" (CharAt var30 786)))
(assert (= "0" (CharAt var30 184)))
(assert (= "`" (CharAt var35 988)))
(assert (= "U" (CharAt var44 213)))
(assert (= "k" (CharAt var30 728)))
(assert (= "g" (CharAt var7 311)))
(assert (= "Z" (CharAt var9 307)))
(assert (= "s" (CharAt var35 553)))
(assert (= "c" (CharAt var28 146)))
(assert (= "V" (CharAt var47 335)))
(assert (= "&" (CharAt var34 493)))
(assert (= "+" (CharAt var22 226)))
(assert (= "/" (CharAt var8 595)))
(assert (= "E" (CharAt var46 883)))
(assert (= "6" (CharAt var51 48)))
(assert (= "v" (CharAt var12 207)))
(assert (= "C" (CharAt var30 30)))
(assert (= "(" (CharAt var33 337)))
(assert (= "h" (CharAt var25 6)))
(assert (= "Z" (CharAt var49 320)))
(assert (= "H" (CharAt var44 239)))
(assert (= "n" (CharAt var55 723)))
(assert (= "7" (CharAt var41 921)))
(assert (= "O" (CharAt var18 840)))
(assert (= "%" (CharAt var51 3)))
(assert (= "z" (CharAt var39 224)))
(assert (= "X" (CharAt var20 890)))
(assert (= "j" (CharAt var20 136)))
(assert (= "}" (CharAt var45 655)))
(assert (= "i" (CharAt var52 469)))
(assert (= "E" (CharAt var7 33)))
(assert (= "&" (CharAt var44 185)))
(assert (= "@" (CharAt var44 426)))
(assert (= "@" (CharAt var31 360)))
(assert (= "5" (CharAt var22 263)))
(assert (= "c" (CharAt var38 455)))
(assert (= "Y" (CharAt var9 245)))
(assert (= "W" (CharAt var8 317)))
(assert (= "C" (CharAt var18 894)))
(assert (= "@" (CharAt var47 462)))
(assert (= "o" (CharAt var54 160)))
(assert (= "m" (CharAt var40 263)))
(assert (= "l" (CharAt var2 604)))
(assert (= "9" (CharAt var37 258)))
(assert (= ":" (CharAt var13 455)))
(assert (= "w" (CharAt var14 120)))
(assert (= "a" (CharAt var0 466)))
(assert (= "1" (CharAt var25 145)))
(assert (= "[" (CharAt var59 152)))
(assert (= "=" (CharAt var5 297)))
(assert (= "e" (CharAt var29 306)))
(assert (= "_" (CharAt var55 644)))
(assert (= "f" (CharAt var49 951)))
(assert (= "w" (CharAt var15 635)))
(assert (= "5" (CharAt var40 304)))
(assert (= "1" (CharAt var17 71)))
(assert (= "!" (CharAt var49 45)))
(assert (= "t" (CharAt var43 987)))
(assert (= "4" (CharAt var54 178)))
(assert (= "b" (CharAt var31 754)))
(assert (= "&" (CharAt var4 829)))
(assert (= "0" (CharAt var56 797)))
(assert (= "g" (CharAt var29 934)))
(assert (= "?" (CharAt var36 7)))
(assert (= "s" (CharAt var55 640)))
(assert (= "#" (CharAt var50 712)))
(assert (= ";" (CharAt var26 614)))
(assert (= "P" (CharAt var19 565)))
(assert (= "z" (CharAt var24 191)))
(assert (= "T" (CharAt var55 114)))
(assert (= "H" (CharAt var48 782)))
(assert (= "p" (CharAt var52 39)))
(assert (= "K" (CharAt var12 155)))
(assert (= "/" (CharAt var14 228)))
(assert (= "r" (CharAt var0 256)))
(assert (= "=" (CharAt var9 656)))
(assert (= "%" (CharAt var22 495)))
(assert (= "j" (CharAt var7 805)))
(assert (= "G" (CharAt var17 443)))
(assert (= ")" (CharAt var37 622)))
(assert (= "X" (CharAt var0 328)))
(assert (= "i" (CharAt var4 866)))
(assert (= "6" (CharAt var17 970)))
(assert (= "_" (CharAt var18 197)))
(assert (= "T" (CharAt var48 491)))
(assert (= "k" (CharAt var46 29)))
(assert (= "b" (CharAt var0 475)))
(assert (= "(" (CharAt var8 283)))
(assert (= "@" (CharAt var29 280)))
(assert (= "Z" (CharAt var35 537)))
(assert (= "g" (CharAt var1 569)))
(assert (= "W" (CharAt var46 73)))
(assert (= ">" (CharAt var22 595)))
(assert (= "M" (CharAt var17 24)))
(assert (= "?" (CharAt var39 342)))
(assert (= ">" (CharAt var29 200)))
(assert (= ")" (CharAt var32 570)))
(assert (= "P" (CharAt var10 989)))
(assert (= "t" (CharAt var14 256)))
(assert (= "E" (CharAt var50 93)))
(assert (= "&" (CharAt var50 110)))
(assert (= "|" (CharAt var13 266)))
(assert (= "_" (CharAt var12 0)))
(assert (= "C" (CharAt var46 753)))
(assert (= "C" (CharAt var27 428)))
(assert (= "m" (CharAt var38 121)))
(assert (= "w" (CharAt var13 549)))
(assert (= "A" (CharAt var25 848)))
(assert (= "p" (CharAt var2 316)))
(assert (= "}" (CharAt var37 718)))
(assert (= "I" (CharAt var26 630)))
(assert (= "F" (CharAt var13 743)))
(assert (= "U" (CharAt var36 282)))
(assert (= "z" (CharAt var60 257)))
(assert (= "B" (CharAt var37 958)))
(assert (= "A" (CharAt var3 128)))
(assert (= "_" (CharAt var4 584)))
(assert (= "," (CharAt var28 971)))
(assert (= "x" (CharAt var37 725)))
(assert (= "," (CharAt var6 518)))
(check-sat)
(get-model)